c User generated cnf file
p cnf 10 54
8 -4 5 0 
5 -5 2 0 
7 -3 2 0 
4 8 -10 0 
3 2 -1 0 
1 -5 5 0 
9 -1 4 0 
1 -1 8 0 
2 -6 7 0 
-2 5 3 0 
2 -10 7 0 
6 -5 5 0 
-1 6 7 0 
1 -5 4 0 
-9 9 10 0 
-7 7 2 0 
10 9 -5 0 
-3 1 2 0 
-3 9 2 0 
7 3 -6 0 
10 8 -2 0 
-3 6 2 0 
2 8 -3 0 
4 -1 7 0 
-3 8 8 0 
3 -6 2 0 
9 9 -7 0 
7 6 -6 0 
6 10 -5 0 
1 -5 1 0 
7 -10 4 0 
1 2 -9 0 
10 -9 5 0 
-2 5 1 0 
-9 3 3 0 
9 -7 9 0 
5 -7 7 0 
8 10 -9 0 
3 -2 8 0 
-9 10 10 0 
5 -5 5 0 
8 10 -5 0 
5 -8 6 0 
-8 8 8 0 
-10 9 1 0 
-5 6 6 0 
-6 10 3 0 
-9 7 1 0 
6 5 -2 0 
-10 9 6 0 
5 7 -3 0 
-7 5 7 0 
9 5 -9 0 
2 -3 9 0 
